80 80
4 98 1
4 30 1
66 86 1
46 87 1
32 88 1
46 79 1
44 82 1
15 52 1
81 78 1
98 82 1
54 21 1
72 82 1
8 89 1
49 96 1
19 93 1
73 1 1
100 77 1
22 9 1
95 20 1
7 64 1
81 31 1
72 44 1
70 57 1
95 59 1
5 74 1
88 55 1
66 93 1
94 9 1
62 60 1
92 33 1
39 51 1
92 70 1
74 78 1
40 98 1
78 86 1
12 30 1
96 52 1
20 8 1
5 87 1
8 11 1
17 35 1
55 50 1
76 76 1
71 69 1
60 18 1
100 46 1
80 8 1
21 93 1
80 23 1
45 53 1
38 74 1
16 5 1
66 4 1
11 60 1
7 94 1
43 61 1
40 52 1
54 88 1
75 24 1
24 50 1
58 88 1
64 93 1
65 54 1
17 93 1
8 67 1
61 63 1
31 5 1
8 47 1
13 79 1
2 22 1
64 33 1
21 100 1
28 46 1
75 25 1
84 27 1
11 75 1
43 23 1
4 60 1
49 10 1
66 26 1
100 100 
100 100 
100 100 
100 100 
100 100 
100 100 
100 100 
100 100 
100 100 
100 100 
100 100 
100 100 
100 100 
100 100 
100 100 
100 100 
100 100 
100 100 
100 100 
100 100 
100 100 
100 100 
100 100 
100 100 
100 100 
100 100 
100 100 
100 100 
100 100 
100 100 
100 100 
100 100 
100 100 
100 100 
100 100 
100 100 
100 100 
100 100 
100 100 
100 100 
100 100 
100 100 
100 100 
100 100 
100 100 
100 100 
100 100 
100 100 
100 100 
100 100 
100 100 
100 100 
100 100 
100 100 
100 100 
100 100 
100 100 
100 100 
100 100 
100 100 
100 100 
100 100 
100 100 
100 100 
100 100 
100 100 
100 100 
100 100 
100 100 
100 100 
100 100 
100 100 
100 100 
100 100 
100 100 
100 100 
100 100 
100 100 
100 100 
100 100 
